
Gurobi 12.0.2 (linux64, C++) logging started Thu Jun 19 08:00:20 2025

Set parameter LogFile to value "log/instances/scenario4/not_correlated_sc4/500/kpfs_4.txt.log"

Gurobi 12.0.2 (linux64, C++) logging started Thu Jun 19 08:01:43 2025

Set parameter LogFile to value "log/instances/scenario4/not_correlated_sc4/500/kpfs_4.txt.log"

Gurobi 12.0.2 (linux64, C++) logging started Thu Jun 19 08:02:54 2025

Set parameter LogFile to value "log/instances/scenario4/not_correlated_sc4/500/kpfs_4.txt.log"

Gurobi 12.0.2 (linux64, C++) logging started Thu Jun 19 08:03:58 2025

Set parameter LogFile to value "log/instances/scenario4/not_correlated_sc4/500/kpfs_4.txt.log"

Gurobi 12.0.2 (linux64, C++) logging started Thu Jun 19 13:13:04 2025

Set parameter WLSAccessID
Set parameter WLSSecret
Set parameter LicenseID to value 2679381
Set parameter LogFile to value "log/instances/scenario4/not_correlated_sc4/500/kpfs_4.txt.log"
Academic license 2679381 - for non-commercial use only - registered to be___@poli.ufrj.br
Set parameter TimeLimit to value 1800
Set parameter Threads to value 1
Gurobi Optimizer version 12.0.2 build v12.0.2rc0 (linux64 - "Ubuntu 24.04.1 LTS")

CPU model: 13th Gen Intel(R) Core(TM) i7-1355U, instruction set [SSE2|AVX|AVX2]
Thread count: 6 physical cores, 12 logical processors, using up to 1 threads

Non-default parameters:
TimeLimit  1800
Threads  1

Academic license 2679381 - for non-commercial use only - registered to be___@poli.ufrj.br
Optimize a model with 1502 rows, 2000 columns and 23469 nonzeros
Model fingerprint: 0xf1506005
Variable types: 0 continuous, 2000 integer (500 binary)
Coefficient statistics:
  Matrix range     [1e+00, 3e+01]
  Objective range  [1e+00, 3e+01]
  Bounds range     [1e+00, 2e+01]
  RHS range        [1e+00, 8e+02]
Found heuristic solution: objective 572.0000000
Presolve removed 0 rows and 53 columns
Presolve time: 0.14s
Presolved: 1502 rows, 1947 columns, 23363 nonzeros
Variable types: 0 continuous, 1947 integer (535 binary)

Root relaxation: objective 1.248458e+03, 850 iterations, 0.15 seconds (0.06 work units)

    Nodes    |    Current Node    |     Objective Bounds      |     Work
 Expl Unexpl |  Obj  Depth IntInf | Incumbent    BestBd   Gap | It/Node Time

     0     0 1248.45767    0  136  572.00000 1248.45767   118%     -    0s
H    0     0                    1013.0000000 1248.45767  23.2%     -    0s
H    0     0                    1062.0000000 1248.45767  17.6%     -    0s
H    0     0                    1066.0000000 1248.45767  17.1%     -    0s
H    0     0                    1070.0000000 1248.45767  16.7%     -    0s
H    0     0                    1162.0000000 1248.45767  7.44%     -    0s
H    0     0                    1175.0000000 1248.45767  6.25%     -    0s
H    0     0                    1176.0000000 1248.45767  6.16%     -    0s
H    0     0                    1177.0000000 1248.45767  6.07%     -    0s
H    0     0                    1180.0000000 1248.45767  5.80%     -    0s
H    0     0                    1181.0000000 1248.45767  5.71%     -    0s
H    0     0                    1185.0000000 1248.45767  5.36%     -    0s
H    0     0                    1186.0000000 1248.45767  5.27%     -    0s
H    0     0                    1192.0000000 1248.45767  4.74%     -    0s
     0     0 1246.86267    0  133 1192.00000 1246.86267  4.60%     -    1s
H    0     0                    1193.0000000 1246.82519  4.51%     -    1s
H    0     0                    1194.0000000 1246.82519  4.42%     -    1s
H    0     0                    1199.0000000 1246.82519  3.99%     -    1s
     0     0 1246.81714    0  133 1199.00000 1246.81714  3.99%     -    2s
     0     0 1245.25147    0  142 1199.00000 1245.25147  3.86%     -    2s
     0     0 1245.15420    0  143 1199.00000 1245.15420  3.85%     -    2s
     0     0 1245.15420    0  141 1199.00000 1245.15420  3.85%     -    2s
     0     0 1244.37012    0  146 1199.00000 1244.37012  3.78%     -    2s
     0     0 1244.30733    0  150 1199.00000 1244.30733  3.78%     -    2s
     0     0 1244.29949    0  147 1199.00000 1244.29949  3.78%     -    2s
     0     0 1243.84384    0  148 1199.00000 1243.84384  3.74%     -    2s
     0     0 1243.83536    0  148 1199.00000 1243.83536  3.74%     -    2s
     0     0 1243.82894    0  152 1199.00000 1243.82894  3.74%     -    3s
     0     0 1243.80751    0  152 1199.00000 1243.80751  3.74%     -    3s
     0     2 1242.82894    0  152 1199.00000 1242.82894  3.66%     -    3s
    90    82 1218.00643    5  143 1199.00000 1237.22894  3.19%  47.3    6s
H  130   102                    1200.0000000 1237.20761  3.10%  45.4    8s
H  130   100                    1201.0000000 1237.20761  3.01%  45.4    8s
   386   288 1220.71938   12  118 1201.00000 1234.18069  2.76%  43.7   10s
H  550   344                    1205.0000000 1233.02990  2.33%  44.6   10s
   671   413 1210.75427   25  111 1205.00000 1232.57374  2.29%  47.4   15s
   783   421 1231.89808   12  128 1205.00000 1232.03488  2.24%  50.9   20s
H  785   393                    1209.0000000 1232.03488  1.91%  50.8   21s
  1257   374 1213.77562   19  136 1209.00000 1225.19718  1.34%  50.4   25s
  1816   250 1214.49008   21  103 1209.00000 1221.34553  1.02%  50.0   30s
  2148   219 1214.54130   21  120 1209.00000 1219.19105  0.84%  49.3   35s
* 2214   213              28    1210.0000000 1219.03502  0.75%  48.7   35s
  2586   113     cutoff   21      1210.00000 1215.12025  0.42%  47.4   40s
H 2724     0                    1212.0000000 1212.33333  0.03%  46.4   41s

Cutting planes:
  Gomory: 4
  MIR: 6
  Zero half: 15

Explored 2725 nodes (127523 simplex iterations) in 41.70 seconds (14.02 work units)
Thread count was 1 (of 12 available processors)

Solution count 10: 1212 1210 1209 ... 1192

Optimal solution found (tolerance 1.00e-04)
Best objective 1.212000000000e+03, best bound 1.212000000000e+03, gap 0.0000%
